
Gurobi 7.0.2 (linux64, Python) logging started Fri Apr 28 18:44:38 2017


Gurobi 7.0.2 (linux64, Python) logging started Fri Apr 28 18:58:52 2017


Gurobi 7.0.1 (mac64, Python) logging started Fri Apr 28 19:45:47 2017


Gurobi 7.0.1 (mac64, Python) logging started Fri Apr 28 19:50:11 2017

Optimize a model with 401 rows, 1201 columns and 4610 nonzeros
Variable types: 0 continuous, 1201 integer (1201 binary)
Coefficient statistics:
  Matrix range     [1e+00, 1e+00]
  Objective range  [1e+00, 1e+02]
  Bounds range     [1e+00, 1e+00]
  RHS range        [1e+00, 1e+00]
Found heuristic solution: objective 5677
Presolve removed 247 rows and 379 columns
Presolve time: 0.02s
Presolved: 154 rows, 822 columns, 2924 nonzeros
Variable types: 0 continuous, 822 integer (822 binary)

Root relaxation: objective 3.840000e+02, 106 iterations, 0.03 seconds

    Nodes    |    Current Node    |     Objective Bounds      |     Work
 Expl Unexpl |  Obj  Depth IntInf | Incumbent    BestBd   Gap | It/Node Time

*    0     0               0     384.0000000  384.00000  0.00%     -    0s

Explored 0 nodes (106 simplex iterations) in 0.10 seconds
Thread count was 4 (of 4 available processors)

Solution count 2: 384 5677 
Pool objective bound 384

Optimal solution found (tolerance 1.00e-04)
Best objective 3.840000000000e+02, best bound 3.840000000000e+02, gap 0.0000%
Optimize a model with 4001 rows, 3010 columns and 46100 nonzeros
Variable types: 0 continuous, 3010 integer (3010 binary)
Coefficient statistics:
  Matrix range     [1e+00, 1e+00]
  Objective range  [1e+00, 1e+02]
  Bounds range     [1e+00, 1e+00]
  RHS range        [1e+00, 1e+00]
Found heuristic solution: objective 6147
Presolve removed 3801 rows and 2071 columns
Presolve time: 0.02s
Presolved: 200 rows, 939 columns, 3928 nonzeros
Variable types: 0 continuous, 939 integer (939 binary)

Root relaxation: objective 4.290000e+02, 135 iterations, 0.00 seconds

    Nodes    |    Current Node    |     Objective Bounds      |     Work
 Expl Unexpl |  Obj  Depth IntInf | Incumbent    BestBd   Gap | It/Node Time

*    0     0               0     429.0000000  429.00000  0.00%     -    0s

Explored 0 nodes (135 simplex iterations) in 0.04 seconds
Thread count was 4 (of 4 available processors)

Solution count 2: 429 6147 
Pool objective bound 429

Optimal solution found (tolerance 1.00e-04)
Best objective 4.290000000000e+02, best bound 4.290000000000e+02, gap 0.0000%

Gurobi 7.0.1 (mac64, Python) logging started Fri Apr 28 20:34:42 2017


Gurobi 7.0.1 (mac64, Python) logging started Fri Apr 28 20:38:03 2017


Gurobi 6.5.2 (win64) logging started 05/04/17 23:43:29

Optimize a model with 40001 rows, 21100 columns and 461000 nonzeros
Coefficient statistics:
  Matrix range    [1e+00, 1e+00]
  Objective range [1e+00, 1e+02]
  Bounds range    [1e+00, 1e+00]
  RHS range       [1e+00, 5e+00]
Found heuristic solution: objective 6147
Presolve removed 29554 rows and 20051 columns
Presolve time: 1.28s
Presolved: 10447 rows, 1049 columns, 215685 nonzeros
Variable types: 0 continuous, 1049 integer (1049 binary)
Presolved: 1049 rows, 11496 columns, 216734 nonzeros


Root relaxation: objective 4.075500e+02, 1836 iterations, 0.27 seconds

    Nodes    |    Current Node    |     Objective Bounds      |     Work
 Expl Unexpl |  Obj  Depth IntInf | Incumbent    BestBd   Gap | It/Node Time

     0     0  407.55000    0  166 6147.00000  407.55000  93.4%     -    1s
H    0     0                     429.0000000  407.55000  5.00%     -    1s
     0     0  408.45000    0  183  429.00000  408.45000  4.79%     -    2s
     0     0  408.45000    0  163  429.00000  408.45000  4.79%     -    2s
     0     0  408.70000    0  183  429.00000  408.70000  4.73%     -    3s
     0     0  409.63000    0  180  429.00000  409.63000  4.52%     -    3s
     0     0  410.71800    0  179  429.00000  410.71800  4.26%     -    3s
     0     0  410.81141    0  180  429.00000  410.81141  4.24%     -    3s
     0     0  411.17019    0  181  429.00000  411.17019  4.16%     -    4s
     0     0  411.18418    0  181  429.00000  411.18418  4.15%     -    4s
     0     0  411.48454    0  174  429.00000  411.48454  4.08%     -    4s
     0     0  411.48998    0  175  429.00000  411.48998  4.08%     -    4s
     0     0  411.49621    0  174  429.00000  411.49621  4.08%     -    4s
     0     0  411.53523    0  179  429.00000  411.53523  4.07%     -    5s
     0     0  411.54907    0  181  429.00000  411.54907  4.07%     -    5s
     0     0  411.58063    0  181  429.00000  411.58063  4.06%     -    5s
     0     0  411.61722    0  181  429.00000  411.61722  4.05%     -    5s
     0     0  411.67252    0  180  429.00000  411.67252  4.04%     -    5s
     0     0  411.67658    0  180  429.00000  411.67658  4.04%     -    5s
     0     0  411.86157    0  180  429.00000  411.86157  3.99%     -    6s
     0     0  411.87904    0  182  429.00000  411.87904  3.99%     -    6s
     0     0  411.87904    0  182  429.00000  411.87904  3.99%     -    6s
     0     0  411.88314    0  183  429.00000  411.88314  3.99%     -    6s
     0     0  411.93250    0  183  429.00000  411.93250  3.98%     -    6s
     0     0  412.41711    0  183  429.00000  412.41711  3.87%     -    7s
     0     0  412.41711    0  183  429.00000  412.41711  3.87%     -    7s
     0     0  412.41711    0  183  429.00000  412.41711  3.87%     -    8s
     0     2  412.41711    0  183  429.00000  412.41711  3.87%     -    9s
     6     8  424.91753    5  145  429.00000  416.17347  2.99%   165   10s

Cutting planes:
  Gomory: 4
  MIR: 6
  Zero half: 1

Explored 143 nodes (15080 simplex iterations) in 11.67 seconds
Thread count was 4 (of 4 available processors)

Optimal solution found (tolerance 1.00e-04)
Best objective 4.290000000000e+02, best bound 4.290000000000e+02, gap 0.0%
No parameters matching 'output' found
No parameters matching 'output' found
No parameters matching 'output' found

Gurobi 6.5.2 (win64) logging started 05/05/17 01:05:52


Gurobi 6.5.2 (win64) logging started 05/05/17 01:17:36


Gurobi 6.5.2 (win64) logging started 05/05/17 01:18:33


Gurobi 6.5.2 (win64) logging started 05/05/17 01:19:36


Gurobi 6.5.2 (win64) logging started 05/05/17 01:21:27


Gurobi 6.5.2 (win64) logging started 05/05/17 01:22:54


Gurobi 6.5.2 (win64) logging started 05/05/17 01:24:15


Gurobi 6.5.2 (win64) logging started 05/05/17 01:25:48


Gurobi 6.5.2 (win64) logging started 05/05/17 01:28:23


Gurobi 6.5.2 (win64) logging started 05/05/17 01:29:59


Gurobi 6.5.2 (win64) logging started 05/05/17 01:31:07


Gurobi 6.5.2 (win64) logging started 05/05/17 01:31:55


Gurobi 6.5.2 (win64) logging started 05/05/17 01:34:39


Gurobi 6.5.2 (win64) logging started 05/05/17 01:36:02


Gurobi 6.5.2 (win64) logging started 05/05/17 01:37:04


Gurobi 6.5.2 (win64) logging started 05/05/17 01:37:36


Gurobi 6.5.2 (win64) logging started 05/05/17 01:45:09


Gurobi 6.5.2 (win64) logging started 05/05/17 01:46:41


Gurobi 6.5.2 (win64) logging started 05/05/17 01:54:45


Gurobi 6.5.2 (win64) logging started 05/05/17 02:07:00


Gurobi 6.5.2 (win64) logging started 05/05/17 02:08:16


Gurobi 6.5.2 (win64) logging started 05/05/17 02:34:30


Gurobi 6.5.2 (win64) logging started 05/05/17 02:38:31


Gurobi 6.5.2 (win64) logging started 05/05/17 02:39:39


Gurobi 6.5.2 (win64) logging started 05/05/17 10:29:31


Gurobi 6.5.2 (win64) logging started 05/05/17 10:35:50


Gurobi 6.5.2 (win64) logging started 05/05/17 10:37:14


Gurobi 6.5.2 (win64) logging started 05/05/17 10:38:51


Gurobi 6.5.2 (win64) logging started 05/05/17 11:01:52


Gurobi 6.5.2 (win64) logging started 05/05/17 11:09:43


Gurobi 6.5.2 (win64) logging started 05/05/17 11:31:08


Gurobi 6.5.2 (win64) logging started 05/05/17 11:35:02


Gurobi 6.5.2 (win64) logging started 05/05/17 11:42:36


Gurobi 6.5.2 (win64) logging started 05/05/17 11:43:32


Gurobi 7.0.2 (linux64, Python) logging started Wed Jun  7 14:14:49 2017


Gurobi 7.0.2 (linux64, Python) logging started Wed Jun  7 14:15:08 2017


Gurobi 7.0.2 (linux64, Python) logging started Wed Jun  7 14:20:47 2017


Gurobi 7.0.2 (linux64, Python) logging started Fri Jun  9 10:50:53 2017


Gurobi 7.0.2 (linux64, Python) logging started Fri Jun  9 10:53:06 2017


Gurobi 7.0.2 (linux64, Python) logging started Fri Jun  9 10:56:15 2017


Gurobi 7.0.2 (linux64, Python) logging started Fri Jun  9 11:03:45 2017


Gurobi 7.0.2 (linux64, Python) logging started Fri Jun  9 11:27:02 2017


Gurobi 7.0.2 (linux64, Python) logging started Fri Jun  9 11:41:29 2017


Gurobi 7.0.2 (linux64, Python) logging started Fri Jun  9 12:13:01 2017


Gurobi 7.0.2 (win64, Python) logging started 06/11/17 15:44:40


Gurobi 6.5.2 (win64) logging started 06/13/17 11:52:13


Gurobi 6.5.2 (win64) logging started 06/13/17 12:02:14


Gurobi 6.5.2 (win64) logging started 06/13/17 12:48:53


Gurobi 6.5.2 (win64) logging started 06/13/17 12:54:52


Gurobi 6.5.2 (win64) logging started 06/13/17 12:58:11


Gurobi 6.5.2 (win64) logging started 06/13/17 12:59:50


Gurobi 6.5.2 (win64) logging started 06/13/17 13:12:25


Gurobi 6.5.2 (win64) logging started 06/13/17 15:11:24


Gurobi 6.5.2 (win64) logging started 06/13/17 15:24:29


Gurobi 6.5.2 (win64) logging started 06/13/17 15:27:33


Gurobi 7.0.2 (win64, Python) logging started 06/14/17 10:30:37


Gurobi 7.0.2 (linux64, Python) logging started Wed Jun 14 12:45:10 2017


Gurobi 7.0.2 (linux64, Python) logging started Wed Jun 14 12:58:31 2017


Gurobi 7.0.2 (win64, Python) logging started 06/14/17 14:33:00


Gurobi 7.0.2 (linux64, Python) logging started Wed Jun 14 14:45:21 2017


Gurobi 7.0.2 (linux64, Python) logging started Wed Jun 14 14:51:00 2017


Gurobi 6.5.2 (win64) logging started 06/15/17 14:21:16


Gurobi 7.0.2 (win64, Python) logging started 06/16/17 09:20:05


Gurobi 7.0.2 (win64, Python) logging started 06/19/17 11:17:57


Gurobi 7.0.2 (win64, Python) logging started 06/21/17 15:19:31


Gurobi 7.0.2 (win64, Python) logging started 06/21/17 17:34:26


Gurobi 7.0.2 (win64, Python) logging started 06/22/17 16:33:38


Gurobi 7.0.2 (win64, Python) logging started 06/22/17 16:42:29


Gurobi 7.0.2 (win64, Python) logging started 06/23/17 13:59:31


Gurobi 7.0.2 (win64, Python) logging started 06/29/17 14:25:17


Gurobi 7.0.2 (linux64, Python) logging started Fri Jun 30 12:07:40 2017


Gurobi 7.0.2 (linux64, Python) logging started Fri Jun 30 12:11:33 2017


Gurobi 7.0.2 (linux64, Python) logging started Fri Jun 30 12:18:12 2017


Gurobi 7.0.2 (linux64, Python) logging started Fri Jun 30 12:23:29 2017


Gurobi 7.0.2 (linux64, Python) logging started Fri Jun 30 12:26:21 2017


Gurobi 7.0.2 (linux64, Python) logging started Fri Jun 30 13:11:38 2017


Gurobi 7.0.2 (linux64, Python) logging started Fri Jun 30 13:16:46 2017


Gurobi 7.0.2 (linux64, Python) logging started Fri Jun 30 13:19:00 2017


Gurobi 7.0.2 (linux64, Python) logging started Fri Jun 30 13:22:55 2017


Gurobi 7.0.2 (linux64, Python) logging started Fri Jun 30 13:28:33 2017


Gurobi 7.0.2 (linux64, Python) logging started Fri Jun 30 13:32:50 2017


Gurobi 7.0.2 (linux64, Python) logging started Fri Jun 30 13:40:03 2017


Gurobi 7.0.2 (linux64, Python) logging started Fri Jun 30 13:46:06 2017


Gurobi 7.0.2 (linux64, Python) logging started Fri Jun 30 13:57:10 2017


Gurobi 7.0.2 (linux64, Python) logging started Fri Jun 30 14:17:32 2017


Gurobi 7.0.2 (linux64, Python) logging started Fri Jul  7 02:09:59 2017


Gurobi 7.0.2 (linux64, Python) logging started Fri Jul  7 02:33:15 2017


Gurobi 7.0.2 (linux64, Python) logging started Fri Jul  7 02:37:55 2017


Gurobi 7.0.2 (linux64, Python) logging started Fri Jul  7 02:45:27 2017


Gurobi 7.0.2 (linux64, Python) logging started Fri Jul  7 02:47:39 2017


Gurobi 7.0.2 (linux64, Python) logging started Fri Jul  7 02:50:41 2017


Gurobi 7.0.2 (linux64, Python) logging started Fri Jul  7 02:55:16 2017


Gurobi 7.0.2 (linux64, Python) logging started Fri Jul  7 02:57:54 2017


Gurobi 7.0.2 (linux64, Python) logging started Fri Jul  7 02:59:48 2017


Gurobi 7.0.2 (linux64, Python) logging started Fri Jul  7 03:05:05 2017


Gurobi 7.0.2 (linux64, Python) logging started Fri Jul  7 03:09:57 2017


Gurobi 7.0.2 (linux64, Python) logging started Fri Jul  7 03:16:45 2017


Gurobi 7.0.2 (linux64, Python) logging started Fri Jul  7 03:22:28 2017


Gurobi 7.0.2 (linux64, Python) logging started Fri Jul  7 09:18:13 2017


Gurobi 7.0.2 (linux64, Python) logging started Fri Jul  7 09:26:55 2017


Gurobi 7.0.2 (linux64, Python) logging started Fri Jul  7 09:28:37 2017


Gurobi 7.0.2 (linux64, Python) logging started Fri Jul  7 09:55:50 2017


Gurobi 7.0.2 (linux64, Python) logging started Fri Jul  7 13:43:08 2017


Gurobi 7.0.2 (linux64, Python) logging started Fri Jul  7 14:59:07 2017


Gurobi 7.0.2 (linux64, Python) logging started Fri Jul  7 15:00:02 2017


Gurobi 7.0.2 (linux64, Python) logging started Fri Jul  7 15:01:23 2017


Gurobi 7.0.2 (linux64, Python) logging started Fri Jul  7 16:34:19 2017


Gurobi 7.0.2 (linux64, Python) logging started Sat Jul  8 09:44:02 2017


Gurobi 7.0.2 (linux64, Python) logging started Tue Jul 11 14:51:11 2017


Gurobi 7.0.2 (linux64, Python) logging started Tue Jul 11 15:20:27 2017


Gurobi 7.0.2 (linux64, Python) logging started Thu Jul 13 22:52:35 2017


Gurobi 7.0.2 (linux64, Python) logging started Fri Jul 14 00:33:54 2017


Gurobi 7.0.2 (linux64, Python) logging started Fri Jul 14 01:25:21 2017


Gurobi 7.0.2 (linux64, Python) logging started Fri Jul 14 01:27:06 2017


Gurobi 7.0.2 (linux64, Python) logging started Fri Jul 14 10:04:00 2017


Gurobi 7.0.2 (linux64, Python) logging started Mon Jul 17 11:39:51 2017


Gurobi 7.0.2 (linux64, Python) logging started Mon Jul 17 11:55:12 2017


Gurobi 7.0.2 (linux64, Python) logging started Mon Jul 17 12:01:59 2017


Gurobi 7.0.2 (linux64, Python) logging started Tue Jul 18 11:28:25 2017


Gurobi 7.0.2 (linux64, Python) logging started Fri Jul 21 01:04:16 2017


Gurobi 7.0.2 (linux64, Python) logging started Fri Jul 21 11:39:00 2017


Gurobi 7.0.2 (linux64, Python) logging started Thu Jul 27 16:02:58 2017


Gurobi 7.0.2 (linux64, Python) logging started Fri Aug  4 11:26:00 2017


Gurobi 7.5.1 (linux64, Python) logging started Thu Aug 24 11:58:25 2017

Academic license - for non-commercial use only

Gurobi 7.5.1 (linux64, Python) logging started Thu Aug 24 12:00:02 2017

Academic license - for non-commercial use only

Gurobi 7.5.1 (linux64, Python) logging started Thu Aug 24 14:33:13 2017

Academic license - for non-commercial use only

Gurobi 7.5.1 (linux64, Python) logging started Thu Aug 24 14:45:30 2017

Academic license - for non-commercial use only

Gurobi 7.5.1 (win64, Python) logging started 10/17/17 01:51:39

Academic license - for non-commercial use only
Changed value of parameter threads to 1
   Prev: 0  Min: 0  Max: 1024  Default: 0
Changed value of parameter threads to 1
   Prev: 0  Min: 0  Max: 1024  Default: 0
Changed value of parameter threads to 1
   Prev: 0  Min: 0  Max: 1024  Default: 0
Changed value of parameter threads to 1
   Prev: 0  Min: 0  Max: 1024  Default: 0
Changed value of parameter threads to 1
   Prev: 0  Min: 0  Max: 1024  Default: 0
Changed value of parameter threads to 1
   Prev: 0  Min: 0  Max: 1024  Default: 0
Changed value of parameter threads to 1
   Prev: 0  Min: 0  Max: 1024  Default: 0
Changed value of parameter threads to 1
   Prev: 0  Min: 0  Max: 1024  Default: 0

Gurobi 8.0.1 (linux64, Python) logging started Wed Oct 10 15:19:08 2018

Academic license - for non-commercial use only
Changed value of parameter threads to 1
   Prev: 0  Min: 0  Max: 1024  Default: 0

Gurobi 8.0.1 (linux64, Python) logging started Wed Oct 10 15:20:26 2018

Academic license - for non-commercial use only
Changed value of parameter threads to 1
   Prev: 0  Min: 0  Max: 1024  Default: 0

Gurobi 8.1.0 (win64, Python) logging started 10/23/18 16:33:57

Academic license - for non-commercial use only
Changed value of parameter threads to 1
   Prev: 0  Min: 0  Max: 1024  Default: 0
Changed value of parameter threads to 1
   Prev: 0  Min: 0  Max: 1024  Default: 0

Gurobi 8.1.0 (win64, Python) logging started 10/23/18 16:38:05

Academic license - for non-commercial use only
Changed value of parameter threads to 1
   Prev: 0  Min: 0  Max: 1024  Default: 0
Changed value of parameter threads to 1
   Prev: 0  Min: 0  Max: 1024  Default: 0

Gurobi 8.1.0 (win64, Python) logging started 10/23/18 16:38:50

Academic license - for non-commercial use only
Changed value of parameter threads to 1
   Prev: 0  Min: 0  Max: 1024  Default: 0
Changed value of parameter threads to 1
   Prev: 0  Min: 0  Max: 1024  Default: 0
Changed value of parameter threads to 1
   Prev: 0  Min: 0  Max: 1024  Default: 0
Changed value of parameter threads to 1
   Prev: 0  Min: 0  Max: 1024  Default: 0
Changed value of parameter threads to 1
   Prev: 0  Min: 0  Max: 1024  Default: 0
Changed value of parameter threads to 1
   Prev: 0  Min: 0  Max: 1024  Default: 0

Gurobi 8.1.0 (win64, Python) logging started 10/23/18 20:00:39

Academic license - for non-commercial use only
Changed value of parameter threads to 1
   Prev: 0  Min: 0  Max: 1024  Default: 0
Changed value of parameter threads to 1
   Prev: 0  Min: 0  Max: 1024  Default: 0
Changed value of parameter threads to 1
   Prev: 0  Min: 0  Max: 1024  Default: 0
Changed value of parameter threads to 1
   Prev: 0  Min: 0  Max: 1024  Default: 0
Changed value of parameter threads to 1
   Prev: 0  Min: 0  Max: 1024  Default: 0
Changed value of parameter threads to 1
   Prev: 0  Min: 0  Max: 1024  Default: 0
Changed value of parameter threads to 1
   Prev: 0  Min: 0  Max: 1024  Default: 0

Gurobi 8.1.0 (win64, Python) logging started 10/23/18 20:23:38

Academic license - for non-commercial use only
Changed value of parameter threads to 1
   Prev: 0  Min: 0  Max: 1024  Default: 0
Changed value of parameter threads to 1
   Prev: 0  Min: 0  Max: 1024  Default: 0
Changed value of parameter threads to 1
   Prev: 0  Min: 0  Max: 1024  Default: 0
Changed value of parameter threads to 1
   Prev: 0  Min: 0  Max: 1024  Default: 0
Changed value of parameter threads to 1
   Prev: 0  Min: 0  Max: 1024  Default: 0
Changed value of parameter threads to 1
   Prev: 0  Min: 0  Max: 1024  Default: 0
Changed value of parameter threads to 1
   Prev: 0  Min: 0  Max: 1024  Default: 0
Changed value of parameter threads to 1
   Prev: 0  Min: 0  Max: 1024  Default: 0
Changed value of parameter threads to 1
   Prev: 0  Min: 0  Max: 1024  Default: 0
Changed value of parameter threads to 1
   Prev: 0  Min: 0  Max: 1024  Default: 0
Changed value of parameter threads to 1
   Prev: 0  Min: 0  Max: 1024  Default: 0

Gurobi 8.1.0 (win64, Python) logging started 11/07/18 11:40:42

Academic license - for non-commercial use only
Changed value of parameter threads to 1
   Prev: 0  Min: 0  Max: 1024  Default: 0
Changed value of parameter threads to 1
   Prev: 0  Min: 0  Max: 1024  Default: 0

Gurobi 8.1.0 (win64, Python) logging started 11/07/18 12:20:06

Academic license - for non-commercial use only
Changed value of parameter threads to 1
   Prev: 0  Min: 0  Max: 1024  Default: 0

Gurobi 8.1.0 (win64, Python) logging started 11/07/18 12:24:12

Academic license - for non-commercial use only
Changed value of parameter threads to 1
   Prev: 0  Min: 0  Max: 1024  Default: 0
Changed value of parameter threads to 1
   Prev: 0  Min: 0  Max: 1024  Default: 0
